(set-info :smt-lib-version 2.6)
(set-logic QF_UFLRA)
(set-info :source |
MathSat group

|)
(set-info :category "random")
(set-info :status unsat)
(declare-fun x0 () Real)
(declare-fun x1 () Real)
(declare-fun x2 () Real)
(declare-fun x3 () Real)
(declare-fun x4 () Real)
(declare-fun x5 () Real)
(declare-fun x6 () Real)
(declare-fun x7 () Real)
(declare-fun x8 () Real)
(declare-fun x9 () Real)
(declare-fun x10 () Real)
(declare-fun x11 () Real)
(declare-fun x12 () Real)
(declare-fun x13 () Real)
(declare-fun x14 () Real)
(declare-fun x15 () Real)
(declare-fun x16 () Real)
(declare-fun x17 () Real)
(declare-fun x18 () Real)
(declare-fun x19 () Real)
(declare-fun x20 () Real)
(declare-fun x21 () Real)
(declare-fun x22 () Real)
(declare-fun x23 () Real)
(declare-fun x24 () Real)
(declare-fun x25 () Real)
(declare-fun x26 () Real)
(declare-fun x27 () Real)
(declare-fun x28 () Real)
(declare-fun x29 () Real)
(declare-fun f0_1 (Real) Real)
(declare-fun f0_2 (Real Real) Real)
(declare-fun f0_3 (Real Real Real) Real)
(declare-fun f0_4 (Real Real Real Real) Real)
(declare-fun P0 () Bool)
(declare-fun P1 () Bool)
(declare-fun P2 () Bool)
(declare-fun P3 () Bool)
(declare-fun P4 () Bool)
(declare-fun P5 () Bool)
(declare-fun P6 () Bool)
(declare-fun P7 () Bool)
(declare-fun P8 () Bool)
(declare-fun P9 () Bool)
(declare-fun P10 () Bool)
(declare-fun P11 () Bool)
(declare-fun P12 () Bool)
(declare-fun P13 () Bool)
(declare-fun P14 () Bool)
(declare-fun P15 () Bool)
(declare-fun P16 () Bool)
(declare-fun P17 () Bool)
(declare-fun P18 () Bool)
(declare-fun P19 () Bool)
(declare-fun P20 () Bool)
(declare-fun P21 () Bool)
(declare-fun P22 () Bool)
(declare-fun P23 () Bool)
(declare-fun P24 () Bool)
(declare-fun P25 () Bool)
(declare-fun P26 () Bool)
(declare-fun P27 () Bool)
(declare-fun P28 () Bool)
(declare-fun P29 () Bool)
(assert (let ((?v_43 (* 6 x20)) (?v_75 (* 21 x7))) (let ((?v_123 (distinct (+ (- (* 7 x18) (* 15 x16)) ?v_75) 40)) (?v_33 (< (+ (- (* 15 x18) (* 5 x23)) ?v_43) 42)) (?v_85 (<= (+ (- (* 20 x7) ?v_75) (* 21 x21)) 36)) (?v_83 (= x8 (f0_1 x10))) (?v_86 (distinct (f0_2 x12 x9) (f0_1 x21))) (?v_41 (= (f0_1 x12) (f0_1 x25))) (?v_46 (distinct (f0_2 x27 x4) (f0_2 x18 x13))) (?v_40 (distinct x18 (f0_2 x4 x13))) (?v_73 (distinct (f0_1 x27) x19)) (?v_22 (distinct (f0_2 x24 x28) x27)) (?v_19 (distinct x28 x2)) (?v_36 (f0_1 x11))) (let ((?v_11 (distinct ?v_36 (f0_2 x26 x28))) (?v_51 (= x29 (f0_2 x7 x29))) (?v_30 (distinct x6 (f0_2 x9 x29))) (?v_21 (= (f0_2 x22 x22) x0)) (?v_57 (distinct x17 (f0_2 x4 x29))) (?v_37 (= (f0_1 x0) (f0_2 x7 x15))) (?v_69 (= x8 x9)) (?v_29 (= x15 (f0_2 x26 x5))) (?v_108 (= x14 (f0_2 x3 x0))) (?v_90 (f0_1 x6))) (let ((?v_129 (distinct ?v_90 (f0_2 x26 x9))) (?v_25 (= (f0_2 x18 x24) (f0_2 x13 x7))) (?v_2 (= ?v_90 x23)) (?v_64 (distinct (f0_2 x17 x26) x27)) (?v_3 (f0_1 x5)) (?v_4 (f0_1 x26))) (let ((?v_52 (distinct ?v_3 ?v_4)) (?v_16 (= ?v_4 (f0_2 x21 x21))) (?v_23 (distinct x20 ?v_3)) (?v_99 (distinct x21 (f0_2 x5 x20))) (?v_55 (= x25 (f0_2 x20 x21))) (?v_128 (distinct ?v_4 (f0_1 x2))) (?v_126 (distinct x10 x24)) (?v_12 (distinct x10 (f0_2 x28 x16))) (?v_88 (distinct ?v_36 x25)) (?v_82 (not P12)) (?v_28 (not P22)) (?v_9 (not P9)) (?v_10 (not ?v_2))) (let ((?v_117 (not ?v_23)) (?v_18 (not P26)) (?v_54 (not ?v_21)) (?v_8 (not P6)) (?v_67 (not P4)) (?v_115 (not ?v_40)) (?v_7 (not P16)) (?v_45 (not P5)) (?v_31 (not ?v_29)) (?v_13 (not P23)) (?v_65 (not P14)) (?v_34 (not ?v_12)) (?v_50 (not P11)) (?v_44 (not ?v_126)) (?v_53 (not ?v_55)) (?v_38 (not ?v_19)) (?v_113 (not ?v_64)) (?v_66 (not ?v_22)) (?v_118 (not ?v_25)) (?v_147 (not ?v_51)) (?v_100 (not P3)) (?v_140 (not ?v_85)) (?v_58 (not ?v_33)) (?v_62 (not ?v_88)) (?v_98 (not ?v_37)) (?v_61 (not ?v_41)) (?v_137 (not P18)) (?v_70 (not ?v_46)) (?v_71 (not P28)) (?v_96 (not ?v_69)) (?v_101 (not P21)) (?v_141 (not ?v_52)) (?v_91 (not ?v_99)) (?v_56 (not P25)) (?v_151 (not ?v_57)) (?v_97 (not P24)) (?v_79 (not P7)) (?v_95 (not P13)) (?v_134 (not ?v_123)) (?v_138 (not ?v_128)) (?v_110 (not P1)) (?v_130 (not ?v_83)) (?v_106 (not ?v_86)) (?v_125 (not ?v_73)) (?v_144 (not ?v_11)) (?v_104 (not P27)) (?v_124 (not ?v_129)) (?v_157 (not P8)) (?v_105 (not P10)) (?v_142 (not P2)) (?v_111 (not P20)) (?v_152 (not P19)) (?v_114 (not P17)) (?v_121 (not P15)) (?v_148 (not ?v_30)) (?v_145 (not ?v_108)) (?v_149 (not ?v_16)) (?v_150 (not P0)) (?v_156 (not P29)) (?v_27 (< (+ (* 37 x15) (* 8 x27)) 38))) (let ((?v_94 (not ?v_27)) (?v_93 (< (+ (* 35 x24) (* 13 x13) (* 14 x20)) 40))) (let ((?v_109 (not ?v_93)) (?v_135 (< (+ (* 38 x3) (* 18 x20) (* 27 x20)) 39))) (let ((?v_153 (not ?v_135)) (?v_0 (<= (- (- (* 6 x2) (* 5 x18)) (* 22 x25)) (- 13))) (?v_1 (distinct (+ (* 39 x28) (* 10 x24) (* 16 x4)) (- 2))) (?v_24 (< (+ (* (- 29) x21) (* 22 x27) (* 41 x3)) (- 36)))) (let ((?v_17 (not ?v_24)) (?v_76 (<= (+ (- (* 35 x7) (* 39 x17)) (* 22 x26)) (- 33))) (?v_139 (distinct (+ (- (* (- 40) x0) (* 31 x4)) (* 5 x4)) 4))) (let ((?v_133 (not ?v_139)) (?v_48 (not ?v_1)) (?v_20 (< (- (+ (* (- 14) x10) (* 41 x7)) (* 32 x25)) (- 9)))) (let ((?v_14 (not ?v_20)) (?v_42 (= (+ (* (- 30) x6) (* 40 x15) (* 19 x11)) 35))) (let ((?v_32 (not ?v_42)) (?v_5 (< (+ (- (* 38 x13) (* 25 x24)) (* 11 x14)) (- 7)))) (let ((?v_15 (not ?v_5)) (?v_112 (<= (- (+ (* (- 26) x11) (* 41 x6)) (* 4 x4)) 36))) (let ((?v_47 (not ?v_112)) (?v_6 (< (- (- (* (- 30) x3) (* 38 x20)) 0) (- 33))) (?v_120 (< (+ (* (- 28) x7) (* 11 x4) (* 10 x11)) 21))) (let ((?v_146 (not ?v_120)) (?v_87 (not ?v_0)) (?v_49 (< (- (- (* (- 18) x3) 0) (* 5 x14)) (- 35))) (?v_26 (< (- (+ (* 15 x29) (* 29 x15)) (* 39 x15)) (- 39)))) (let ((?v_63 (not ?v_26)) (?v_35 (<= (+ (- (* (- 28) x8) (* 30 x28)) (* 7 x15)) (- 42)))) (let ((?v_143 (not ?v_35)) (?v_59 (<= (- (- (* (- 4) x5) (* 13 x14)) (* 10 x8)) (- 3)))) (let ((?v_78 (not ?v_59)) (?v_80 (< (+ (- (* 6 x3) (* 12 x11)) (* 15 x11)) (- 8))) (?v_39 (<= (+ (- (* (- 39) x7) (* 15 x14)) (* 26 x29)) (- 40))) (?v_74 (<= (+ (- (* (- 30) x23) ?v_43) (* 21 x16)) 9))) (let ((?v_84 (not ?v_74)) (?v_89 (< (- (- (* (- 25) x10) (* 42 x17)) 0) 10))) (let ((?v_60 (not ?v_89)) (?v_116 (not ?v_49)) (?v_77 (distinct (- (+ (* (- 15) x26) (* 30 x25)) (* 37 x9)) 13)) (?v_127 (<= (+ (- (* (- 4) x7) (* 18 x19)) (* 4 x15)) 24))) (let ((?v_81 (not ?v_127)) (?v_92 (not ?v_6)) (?v_136 (<= (+ (* (- 29) x4) (* 23 x17) (* 42 x29)) (- 10)))) (let ((?v_68 (not ?v_136)) (?v_107 (< (- (+ (* 32 x27) (* 27 x28)) (* 36 x20)) (- 10)))) (let ((?v_72 (not ?v_107)) (?v_119 (not ?v_76)) (?v_102 (not ?v_80)) (?v_122 (distinct (+ (* (- 11) x23) x25) 15))) (let ((?v_132 (not ?v_122)) (?v_103 (not ?v_77)) (?v_155 (or ?v_74 P18)) (?v_131 (not ?v_39)) (?v_154 (or P10 ?v_102))) (and (and (and (and (and (and (and (and (and (and (and (and (and (and (and (and (and (and (and (and (and (and (and (and (and (and (and (and (and (and (and (and (and (and (and (and (and (and (and (and (and (and (and (and (and (and (and (and (and (and (and (and (and (and (and (and (and (and (and (and (and (and (and (and (and (and (and (and (and (and (and (and (and (and (and (and (and (and (and (and (and (and (and (and (and (and (and (and (and (and (and (and (and (and (and (and (and (and (and (and (and (and (and (and (and (and (and (and (and (and (and (and (and (and (and (and (and (and (and (and (and (and (and (and (and (and (and (and (and (and (and (and (and (and (and (and (and (and (and (and (and (and (and (and (and (and (and (and (and (and (and (and (and (and (and (and (and (and (and (and (and (and (and (and (and (and (and (and (and (and (and (and (and (and (and (and (and (and (and (and (and (and (and (and (and (and (and (and (and (and (and (and (and (and (and (and (and (and (and (and (and (and (and (and (and (and (and (and (and (and (and (and (and (and (and (and (and (and (and (and (and (and (and (and (and (and (and (and (and (and (and (and (and (and (and (and (and (and (and (and (and (and (and (and (and (and (and (and (and (and (and (and (and (and (and (and (and (and (and (and (and (and (and (and (and (and (and (and (and (and (and (and (and (and (and (and (and (and (and (and (and (and (and (and (and (and (and (and (and (and (and (and (and (and (and (and (and (and (and (and (and (and (and (and (and (and (and (and (and (and (and (and (and (and (and (and (and (and (and (and (and (and (and (and (and (and (and (and (and (and (and (and (and (and (and (and (and (and (and (and (and (and (and (and (and (and (and (and (and (and (and (and (and (and (and (and (and (and (and (and (and (and (and (and (and (and (and (and (and (and (and (and (and (and (and (and (and (and (and (and (and (and (and (and (and (and (and (and (and (and (and (and (and (and (and (and (and (and (and (and (and (and (and (and (and (and (and (and (and (and (and (and (and (and (and (and (and (and (and (and (and (and (and (and (and (and (and (and (and (and (and (and (and (and (and (and (and (and (and (and (and (and (and (and (and (and (and (and (and (or (or ?v_0 P15) ?v_82) (or (or P13 ?v_1) ?v_28)) (or (or ?v_9 ?v_0) ?v_17)) (or (or ?v_10 ?v_117) P1)) (or (or ?v_76 ?v_133) ?v_48)) (or (or ?v_14 ?v_32) ?v_2)) (or (or ?v_94 P21) ?v_18)) (or (or P4 ?v_30) ?v_12)) (or (or ?v_54 ?v_52) ?v_8)) (or (or ?v_11 ?v_67) ?v_15)) (or (or ?v_115 P6) ?v_16)) (or (or ?v_83 ?v_47) P15)) (or (or ?v_7 ?v_5) ?v_6)) (or (or P23 ?v_33) ?v_57)) (or (or P24 P20) ?v_6)) (or (or P28 ?v_6) ?v_45)) (or (or ?v_7 ?v_8) P12)) (or (or ?v_9 ?v_31) ?v_13)) (or (or P16 ?v_146) P8)) (or (or ?v_87 ?v_49) ?v_65)) (or (or ?v_10 ?v_11) ?v_34)) (or (or P23 ?v_13) ?v_19)) (or (or ?v_14 ?v_15) ?v_16)) (or (or ?v_50 ?v_8) ?v_37)) (or (or ?v_44 ?v_53) ?v_63)) (or (or P22 ?v_17) ?v_25)) (or (or ?v_22 ?v_18) P4)) (or (or ?v_38 P1) ?v_20)) (or (or ?v_21 ?v_1) ?v_113)) (or (or ?v_41 ?v_143) ?v_66)) (or (or ?v_23 ?v_24) P2)) (or (or ?v_118 ?v_147) ?v_20)) (or (or ?v_26 P10) ?v_27)) (or (or ?v_100 ?v_73) ?v_78)) (or (or ?v_140 ?v_28) ?v_80)) (or (or ?v_46 ?v_29) P6)) (or (or P0 ?v_30) ?v_31)) (or (or ?v_32 ?v_39) ?v_9)) (or (or P1 ?v_58) P21)) (or (or P29 P21) ?v_1)) (or (or ?v_34 P29) ?v_35)) (or (or ?v_62 ?v_98) ?v_38)) (or (or ?v_39 ?v_12) ?v_40)) (or (or ?v_61 ?v_10) P6)) (or (or ?v_137 P12) ?v_42)) (or (or ?v_84 ?v_24) P29)) (or (or ?v_2 ?v_44) ?v_45)) (or (or ?v_25 P13) ?v_70)) (or (or ?v_47 ?v_60) ?v_71)) (or (or ?v_48 ?v_116) ?v_24)) (or (or P0 ?v_50) ?v_51)) (or (or ?v_40 P10) ?v_28)) (or (or ?v_96 P23) ?v_101)) (or (or ?v_108 ?v_14) ?v_141)) (or (or ?v_53 P22) ?v_54)) (or (or ?v_55 ?v_91) ?v_56)) (or (or ?v_77 ?v_56) ?v_151)) (or (or ?v_58 ?v_53) ?v_51)) (or (or ?v_59 ?v_81) ?v_60)) (or (or ?v_97 ?v_8) ?v_51)) (or (or P7 ?v_23) ?v_22)) (or (or P29 ?v_61) ?v_59)) (or (or P6 ?v_62) ?v_63)) (or (or P12 ?v_92) ?v_20)) (or (or ?v_64 ?v_65) ?v_66)) (or (or ?v_60 P6) ?v_17)) (or (or P1 ?v_67) ?v_68)) (or (or ?v_68 ?v_72) ?v_69)) (or (or ?v_49 ?v_79) ?v_25)) (or (or P2 ?v_70) ?v_71)) (or (or ?v_72 ?v_95) P24)) (or (or P1 ?v_68) ?v_73)) (or (or ?v_54 ?v_74) P6)) (or (or P0 P29) ?v_134)) (or (or ?v_50 ?v_138) P4)) (or (or ?v_50 ?v_110) ?v_17)) (or (or ?v_119 ?v_77) ?v_61)) (or (or ?v_78 ?v_10) ?v_45)) (or (or ?v_17 ?v_26) ?v_79)) (or (or ?v_31 ?v_102) ?v_58)) (or (or ?v_28 ?v_81) ?v_79)) (or (or ?v_93 ?v_82) ?v_132)) (or (or P19 P23) ?v_83)) (or (or ?v_27 ?v_84) ?v_1)) (or (or ?v_86 ?v_45) ?v_69)) (or (or ?v_53 ?v_85) ?v_30)) (or (or ?v_103 ?v_130) P15)) (or (or ?v_49 ?v_25) P16)) (or (or ?v_106 ?v_125) ?v_87)) (or (or ?v_25 ?v_144) ?v_88)) (or (or ?v_55 ?v_104) ?v_9)) (or (or ?v_89 ?v_124) P19)) (or (or ?v_91 ?v_157) P22)) (or (or ?v_92 ?v_109) ?v_39)) (or (or ?v_55 ?v_94) ?v_70)) (or (or ?v_68 ?v_50) ?v_52)) (or (or ?v_95 ?v_96) ?v_97)) (or (or ?v_47 ?v_98) ?v_82)) (or (or P20 ?v_105) ?v_99)) (or (or ?v_100 ?v_0) ?v_101)) (or (or P26 ?v_85) ?v_142)) (or (or P24 ?v_111) P8)) (or (or P20 ?v_102) P12)) (or (or ?v_18 ?v_88) P17)) (or (or P14 ?v_65) ?v_21)) (or (or P5 ?v_58) P2)) (or (or ?v_59 ?v_92) ?v_152)) (or (or P6 ?v_103) ?v_70)) (or (or ?v_114 ?v_104) ?v_105)) (or (or P26 ?v_38) ?v_73)) (or (or ?v_106 ?v_107) P10)) (or (or ?v_108 ?v_10) ?v_121)) (or (or ?v_38 ?v_107) ?v_109)) (or (or ?v_110 P5) ?v_87)) (or (or P3 P18) ?v_91)) (or (or ?v_111 ?v_106) ?v_41)) (or (or ?v_10 P19) P6)) (or (or ?v_91 P3) ?v_105)) (or (or ?v_41 P21) ?v_99)) (or (or ?v_112 ?v_98) ?v_113)) (or (or ?v_73 ?v_7) ?v_17)) (or (or ?v_114 ?v_47) ?v_115)) (or (or ?v_88 P26) ?v_38)) (or (or ?v_38 ?v_34) ?v_16)) (or (or ?v_116 P19) ?v_27)) (or (or ?v_109 ?v_61) ?v_117)) (or (or ?v_33 ?v_118) ?v_13)) (or (or ?v_52 ?v_71) ?v_115)) (or ?v_155 ?v_119)) (or (or ?v_131 ?v_95) ?v_69)) (or (or P15 ?v_52) ?v_15)) (or (or ?v_94 ?v_120) ?v_98)) (or (or P19 P29) ?v_54)) (or (or ?v_66 ?v_42) ?v_44)) (or (or ?v_121 ?v_108) ?v_23)) (or (or ?v_122 ?v_30) P7)) (or (or ?v_13 P28) P9)) (or (or ?v_121 ?v_92) ?v_123)) (or (or ?v_116 ?v_105) P28)) (or (or ?v_1 ?v_97) P11)) (or (or ?v_135 ?v_63) ?v_124)) (or (or ?v_101 ?v_92) ?v_82)) (or (or ?v_120 ?v_125) ?v_17)) (or (or ?v_123 P6) ?v_89)) (or (or ?v_35 ?v_112) ?v_93)) (or (or ?v_107 ?v_103) P5)) (or (or ?v_126 ?v_101) P16)) (or (or ?v_112 P6) ?v_68)) (or (or ?v_53 ?v_127) ?v_128)) (or (or ?v_100 ?v_129) ?v_81)) (or (or ?v_73 ?v_130) ?v_89)) (or (or ?v_131 P18) ?v_6)) (or (or ?v_61 ?v_131) P16)) (or (or P2 ?v_57) ?v_71)) (or (or ?v_65 ?v_67) ?v_117)) (or (or ?v_118 ?v_14) ?v_103)) (or (or P27 ?v_2) ?v_47)) (or (or ?v_86 ?v_49) ?v_82)) (or (or ?v_24 ?v_107) ?v_83)) (or (or ?v_6 ?v_132) ?v_86)) (or (or ?v_123 ?v_133) P17)) (or (or ?v_22 ?v_85) ?v_125)) (or (or P3 P8) ?v_66)) (or (or P1 ?v_134) ?v_135)) (or (or ?v_136 ?v_98) ?v_86)) (or (or ?v_137 P19) ?v_107)) (or (or ?v_127 ?v_138) ?v_139)) (or (or ?v_46 ?v_5) ?v_51)) (or (or P22 P27) ?v_69)) (or (or ?v_78 ?v_49) ?v_0)) (or (or ?v_62 ?v_21) ?v_95)) (or (or ?v_140 ?v_9) P6)) (or (or P26 ?v_2) P12)) (or (or ?v_131 ?v_69) ?v_101)) (or (or ?v_35 ?v_13) ?v_103)) (or (or P4 ?v_128) ?v_46)) (or (or P28 P2) ?v_130)) (or (or ?v_74 P16) ?v_137)) (or (or P13 ?v_13) ?v_89)) (or (or ?v_66 ?v_69) ?v_59)) (or (or ?v_113 ?v_95) ?v_148)) (or (or ?v_88 ?v_124) ?v_99)) (or (or P15 ?v_124) ?v_33)) (or (or ?v_118 P10) P7)) (or (or ?v_96 ?v_81) ?v_56)) (or (or P24 ?v_24) ?v_102)) (or (or ?v_53 ?v_57) P6)) (or (or ?v_127 ?v_66) ?v_138)) (or (or ?v_54 P14) ?v_56)) (or (or ?v_20 ?v_128) ?v_141)) (or (or ?v_26 ?v_113) ?v_111)) (or (or ?v_145 ?v_110) ?v_101)) (or (or ?v_91 ?v_53) ?v_93)) (or (or ?v_119 ?v_84) ?v_41)) (or (or ?v_105 P4) ?v_108)) (or (or ?v_64 ?v_94) ?v_124)) (or (or ?v_49 P25) P28)) (or (or ?v_15 ?v_11) ?v_29)) (or (or ?v_142 ?v_77) ?v_53)) (or (or ?v_136 ?v_60) ?v_129)) (or (or ?v_71 ?v_79) ?v_78)) (or (or ?v_120 ?v_42) ?v_99)) (or (or ?v_143 P1) ?v_114)) (or (or ?v_8 ?v_144) ?v_44)) (or (or P16 ?v_106) ?v_25)) (or (or ?v_13 ?v_135) ?v_58)) (or (or ?v_121 ?v_23) P22)) (or (or ?v_77 ?v_145) ?v_0)) (or (or ?v_72 ?v_99) ?v_25)) (or (or ?v_16 P14) ?v_125)) (or (or ?v_146 ?v_153) ?v_132)) (or (or P15 P19) ?v_80)) (or (or ?v_66 ?v_10) ?v_134)) (or (or P12 ?v_21) ?v_147)) (or (or ?v_81 ?v_64) ?v_112)) (or (or ?v_134 ?v_56) ?v_86)) (or (or ?v_67 P24) ?v_33)) (or (or ?v_76 ?v_109) ?v_80)) (or (or ?v_66 ?v_68) ?v_29)) (or (or P18 ?v_31) ?v_39)) (or (or ?v_68 ?v_148) ?v_146)) (or (or P7 ?v_44) ?v_39)) (or (or ?v_44 ?v_149) ?v_99)) (or (or ?v_141 P24) ?v_25)) (or (or ?v_16 ?v_49) ?v_104)) (or (or P2 ?v_143) ?v_37)) (or (or ?v_33 ?v_19) ?v_46)) (or (or ?v_53 ?v_9) ?v_77)) (or (or P0 ?v_29) P10)) (or (or ?v_82 P23) ?v_93)) (or (or ?v_92 ?v_48) ?v_64)) (or (or P0 P24) P7)) (or (or ?v_94 P26) ?v_55)) (or (or ?v_45 ?v_116) ?v_103)) (or (or P18 ?v_50) P22)) (or (or ?v_135 P1) ?v_27)) (or (or ?v_66 ?v_44) ?v_42)) (or (or ?v_102 ?v_24) ?v_99)) (or (or ?v_0 ?v_78) ?v_45)) (or (or ?v_86 ?v_110) ?v_13)) (or (or ?v_31 ?v_10) ?v_149)) (or (or ?v_107 ?v_51) ?v_12)) (or (or ?v_105 ?v_127) ?v_85)) (or (or ?v_150 P11) ?v_99)) (or (or ?v_23 ?v_44) ?v_30)) (or (or ?v_144 P7) ?v_0)) (or (or ?v_80 ?v_156) ?v_113)) (or (or ?v_136 P26) ?v_146)) (or (or P21 ?v_6) ?v_79)) (or (or ?v_97 ?v_48) ?v_86)) (or (or P1 ?v_7) ?v_67)) (or (or ?v_35 ?v_94) P13)) (or (or ?v_138 ?v_85) ?v_94)) (or (or P20 ?v_101) ?v_89)) (or (or ?v_82 P17) ?v_54)) (or (or ?v_25 ?v_64) ?v_96)) (or ?v_154 ?v_69)) (or (or ?v_89 ?v_47) ?v_150)) (or (or ?v_79 ?v_69) ?v_13)) (or (or ?v_19 ?v_115) ?v_109)) (or (or P2 ?v_151) P9)) (or (or ?v_146 ?v_40) P6)) (or (or P26 ?v_96) ?v_130)) (or (or P16 ?v_152) ?v_129)) (or (or ?v_120 P9) ?v_91)) (or (or ?v_145 ?v_153) ?v_63)) (or (or ?v_63 ?v_85) P21)) (or (or ?v_81 ?v_77) ?v_99)) (or (or P24 ?v_92) ?v_50)) (or (or ?v_149 ?v_12) ?v_0)) (or (or ?v_111 ?v_85) ?v_2)) (or (or ?v_9 ?v_87) P4)) (or (or ?v_147 ?v_15) ?v_49)) (or (or ?v_65 ?v_110) ?v_69)) (or (or ?v_31 ?v_100) P25)) (or (or ?v_64 ?v_34) ?v_112)) (or (or P7 ?v_99) ?v_81)) (or ?v_154 P13)) (or (or ?v_86 ?v_111) ?v_133)) (or (or ?v_11 ?v_140) ?v_60)) (or (or ?v_110 ?v_71) ?v_15)) (or (or ?v_6 ?v_143) ?v_21)) (or (or ?v_50 ?v_152) ?v_115)) (or (or ?v_72 ?v_120) ?v_19)) (or (or P21 P5) ?v_72)) (or (or ?v_16 ?v_18) ?v_95)) (or (or ?v_54 P24) ?v_9)) (or (or ?v_32 ?v_106) P28)) (or (or ?v_38 ?v_95) P24)) (or (or P9 ?v_107) ?v_153)) (or (or ?v_125 ?v_47) ?v_149)) (or (or ?v_64 ?v_51) ?v_100)) (or (or ?v_97 ?v_31) P27)) (or (or ?v_111 ?v_123) ?v_137)) (or (or ?v_128 ?v_53) ?v_37)) (or (or ?v_19 ?v_47) ?v_130)) (or (or ?v_145 ?v_111) ?v_45)) (or (or ?v_5 ?v_42) ?v_6)) (or (or ?v_40 ?v_45) ?v_41)) (or (or ?v_50 P1) ?v_129)) (or (or ?v_109 P26) ?v_131)) (or (or P24 P19) ?v_63)) (or (or ?v_143 ?v_120) ?v_82)) (or (or P23 ?v_8) ?v_134)) (or (or ?v_47 ?v_153) P8)) (or (or ?v_7 ?v_74) ?v_111)) (or (or ?v_91 ?v_107) ?v_138)) (or (or P13 ?v_87) ?v_34)) (or (or ?v_143 ?v_105) ?v_88)) (or (or P2 ?v_67) ?v_91)) (or (or ?v_20 P24) ?v_134)) (or (or ?v_93 ?v_13) ?v_94)) (or (or ?v_57 ?v_13) ?v_28)) (or (or ?v_91 ?v_38) P26)) (or (or ?v_45 ?v_11) ?v_115)) (or (or ?v_28 ?v_23) ?v_47)) (or (or ?v_127 ?v_29) P6)) (or ?v_155 ?v_109)) (or (or ?v_64 ?v_6) ?v_25)) (or (or ?v_37 ?v_78) ?v_52)) (or (or ?v_146 ?v_0) P5)) (or (or ?v_78 ?v_124) ?v_0)) (or (or P11 ?v_21) P16)) (or (or ?v_11 ?v_29) ?v_79)) (or (or ?v_133 P27) ?v_49)) (or (or P9 ?v_118) P22)) (or (or ?v_70 ?v_100) P15)) (or (or ?v_97 ?v_117) ?v_112)) (or (or ?v_132 ?v_88) P9)) (or (or ?v_45 ?v_110) ?v_137)) (or (or ?v_139 ?v_119) ?v_69)) (or (or ?v_148 ?v_100) ?v_128)) (or (or ?v_146 P1) P10)) (or (or ?v_33 ?v_134) P16)) (or (or ?v_101 P18) ?v_84)) (or (or ?v_99 ?v_33) ?v_73)) (or (or P7 ?v_135) ?v_38)) (or (or ?v_35 ?v_89) ?v_135)) (or (or ?v_146 ?v_1) ?v_25)) (or (or P18 P23) ?v_82)) (or (or ?v_30 ?v_156) ?v_67)) (or (or ?v_106 ?v_131) ?v_108)) (or (or ?v_70 ?v_67) P22)) (or (or ?v_73 ?v_117) ?v_124)) (or (or ?v_111 ?v_63) P18)) (or (or ?v_56 ?v_66) ?v_10)) (or (or ?v_52 P2) P20)) (or (or ?v_126 ?v_113) ?v_52)) (or (or ?v_38 ?v_134) ?v_69)) (or (or ?v_8 ?v_66) ?v_67)) (or (or ?v_0 ?v_39) ?v_8)) (or (or P20 ?v_42) ?v_56)) (or (or P28 ?v_45) ?v_152)) (or (or P25 ?v_10) ?v_135)) (or (or ?v_95 ?v_55) ?v_142)) (or (or ?v_133 P8) ?v_135)) (or (or P0 ?v_62) ?v_16)) (or (or ?v_30 P26) ?v_51)) (or (or ?v_39 ?v_78) ?v_100)) (or (or ?v_58 ?v_84) ?v_59)) (or (or ?v_157 ?v_99) ?v_126)) (or (or ?v_11 ?v_72) ?v_134)) (or (or ?v_73 ?v_112) P9)) (or (or ?v_31 ?v_123) ?v_114)) (or (or ?v_103 P26) ?v_50)) (or (or ?v_102 ?v_102) P17)) (or (or ?v_141 ?v_131) P26)) (or (or ?v_28 ?v_15) ?v_60)) (or (or ?v_76 ?v_21) P0)) (or (or ?v_127 ?v_56) ?v_98)) (or (or ?v_70 ?v_151) ?v_56)) (or (or ?v_5 ?v_145) ?v_107)) (or (or ?v_47 ?v_9) ?v_17)) (or (or P6 ?v_101) ?v_81)) (or (or P26 ?v_133) ?v_152)) (or (or ?v_13 ?v_0) ?v_106)) (or (or ?v_139 P23) P29)) (or (or ?v_9 ?v_62) ?v_108)) (or (or ?v_59 ?v_8) ?v_141)) (or (or ?v_15 ?v_46) P28)) (or (or ?v_1 P17) P5)) (or (or ?v_26 P12) ?v_33)) (or (or ?v_78 P22) ?v_41)) (or (or ?v_20 ?v_30) ?v_92)) (or (or ?v_10 P11) ?v_34)) (or (or ?v_14 P23) ?v_57)) (or (or ?v_19 ?v_119) ?v_93)) (or (or ?v_69 ?v_29) P8)) (or (or ?v_150 ?v_96) P18)) (or (or ?v_77 ?v_10) ?v_114)) (or (or ?v_151 ?v_47) ?v_65)) (or (or ?v_85 ?v_41) ?v_54)) (or (or ?v_59 ?v_99) ?v_41)) (or (or ?v_113 ?v_7) ?v_108)) (or (or ?v_152 ?v_88) ?v_129)) (or (or P13 ?v_134) ?v_69)) (or (or P13 ?v_47) ?v_68)) (or (or ?v_72 ?v_81) ?v_39)) (or (or ?v_20 ?v_81) ?v_134)) (or (or ?v_66 ?v_2) ?v_84)) (or (or ?v_107 ?v_35) ?v_63)) (or (or ?v_134 P14) ?v_103)) (or (or ?v_15 ?v_125) ?v_110)) (or (or ?v_0 ?v_98) ?v_119)) (or (or ?v_80 ?v_89) ?v_101)) (or (or ?v_89 ?v_33) ?v_146)) (or (or ?v_108 ?v_127) ?v_48)) (or (or ?v_114 ?v_14) P1)) (or (or ?v_86 P21) ?v_150)) (or (or P20 ?v_62) ?v_8)) (or (or P9 ?v_54) ?v_77)) (or (or ?v_54 ?v_96) ?v_146)) (or (or ?v_149 ?v_84) P6)) (or (or ?v_31 ?v_57) ?v_56)) (or (or P20 ?v_138) ?v_86)) (or (or ?v_71 ?v_26) ?v_99)) (or (or ?v_61 ?v_24) ?v_113)) (or (or ?v_81 ?v_10) ?v_142)) (or (or ?v_8 ?v_135) ?v_32)) (or (or ?v_131 ?v_99) ?v_19)) (or (or ?v_115 ?v_60) ?v_122)) (or (or ?v_95 ?v_30) ?v_128)) (or (or P2 ?v_45) ?v_78)) (or (or ?v_72 ?v_92) ?v_38)) (or (or ?v_70 ?v_28) ?v_65)) (or (or P25 ?v_116) ?v_11)) (or (or ?v_153 ?v_80) ?v_140)) (or (or ?v_100 ?v_34) ?v_134)) (or (or ?v_12 P18) P14)) (or (or ?v_24 P11) ?v_81)) (or (or P19 ?v_65) P13)) (or (or ?v_44 ?v_113) ?v_114)) (or (or P22 ?v_146) P5)) (or (or ?v_142 ?v_87) P21)) (or (or ?v_92 ?v_119) ?v_66)) (or (or ?v_12 ?v_109) ?v_94)) (or (or ?v_102 ?v_61) ?v_25)) (or (or ?v_150 ?v_140) ?v_111)) (or (or ?v_18 ?v_84) ?v_126)) (or (or ?v_126 ?v_45) ?v_84)) (or (or ?v_119 ?v_19) ?v_47)) (or (or ?v_55 P1) ?v_58)) (or (or ?v_33 ?v_128) ?v_21)) (or (or ?v_127 ?v_140) ?v_151)) (or (or ?v_35 P13) ?v_42)) (or (or ?v_9 P27) P16)) (or (or ?v_59 ?v_116) ?v_89)) (or (or ?v_78 P7) ?v_72)) (or (or ?v_89 ?v_104) ?v_132)) (or (or P3 ?v_107) ?v_78))))))))))))))))))))))))))))
(check-sat)
(exit)
